sing20160204.12
TTAA 54121 48698
99007 28649 08005 00082 27847 04510 92770 22425 03514
85503 17808 02013 70150 10217 05011 50588 03924 05007
40761 14126 08513 30975 27948 12021 25103 38740 10530
20251 51731 10027 15431 68337 10534 10665 77560 18006
88113 80146 09055
77120 10063 42059=
TTCC 54125 48698
70867 73765 24023 50063 72568 13512 30378 ///// /////
88835 83556 19008
77999=
TTDD 5412/ 48698
11835 83556 22770 81758 33738 75762 44703 73565 55595
76563 66561 73366 77519 74965 88489 69771 99468 70370
11408 62377 22391 63975 33372 59179 44347 57979 55342
58378
21212 11930 20511 22805 14515 33779 14021 44751 13514
55739 15510 66736 16010 77721 21517 88703 23523 99650
26027 11598 25024 22537 20516 33508 16510 44488 08014
55475 05016 66442 06514 77429 10012 88420 10012 99407
05016 11395 03515 22390 04512 33378 13011 44370 20507
55365 25010 66342 29025=
